n_res = 4;
rc = [ 12, 13, 13, 15 ];
n_tasks = 90;
d = [ 4, 9, 3, 1, 8, 2, 2, 6, 4, 10, 10, 3, 8, 5, 3, 8, 1, 9, 3, 8, 3, 6, 7, 8, 7, 3, 6, 3, 5, 9, 3, 6, 1, 7, 7, 10, 1, 1, 6, 10, 4, 3, 2, 5, 5, 6, 7, 8, 4, 7, 6, 1, 6, 6, 7, 1, 4, 5, 4, 2, 6, 2, 6, 2, 7, 5, 7, 3, 1, 6, 6, 2, 5, 3, 4, 3, 4, 6, 5, 6, 9, 7, 9, 7, 10, 2, 10, 10, 4, 10 ];
rr = [| 0, 0, 0, 0, 0, 0, 0, 0, 0, 0, 0, 8, 0, 0, 2, 0, 0, 0, 0, 0, 0, 0, 0, 8, 0, 2, 0, 0, 1, 0, 0, 0, 0, 0, 0, 0, 0, 0, 0, 0, 0, 0, 0, 0, 0, 9, 0, 0, 0, 3, 0, 0, 6, 2, 5, 5, 0, 5, 2, 0, 0, 0, 0, 0, 0, 0, 0, 0, 10, 0, 0, 4, 0, 1, 2, 0, 2, 0, 0, 0, 2, 0, 0, 0, 0, 7, 7, 0, 6, 6
      | 0, 0, 3, 0, 9, 0, 0, 8, 0, 0, 0, 0, 0, 0, 0, 0, 0, 0, 0, 0, 8, 0, 0, 0, 0, 0, 6, 0, 0, 0, 10, 10, 0, 0, 0, 0, 9, 0, 5, 1, 9, 0, 0, 0, 0, 0, 7, 0, 0, 0, 3, 2, 0, 0, 0, 0, 0, 0, 0, 8, 1, 4, 8, 0, 0, 0, 10, 0, 0, 0, 0, 0, 0, 0, 0, 5, 0, 5, 0, 4, 0, 4, 0, 0, 0, 0, 0, 0, 0, 0
      | 6, 8, 0, 2, 0, 3, 0, 0, 0, 0, 8, 0, 0, 8, 0, 6, 1, 0, 2, 0, 0, 0, 0, 0, 9, 0, 0, 10, 0, 10, 0, 0, 0, 6, 2, 0, 0, 0, 0, 0, 0, 6, 0, 0, 5, 0, 0, 0, 0, 0, 0, 0, 0, 0, 0, 0, 0, 0, 0, 0, 0, 0, 0, 0, 0, 0, 0, 7, 0, 0, 6, 0, 0, 0, 0, 0, 0, 0, 8, 0, 0, 0, 0, 6, 1, 0, 0, 0, 0, 0
      | 0, 0, 0, 0, 0, 0, 9, 0, 8, 7, 0, 0, 5, 0, 0, 0, 0, 6, 0, 8, 0, 2, 3, 0, 0, 0, 0, 0, 0, 0, 0, 0, 9, 0, 0, 8, 0, 1, 0, 0, 0, 0, 6, 10, 0, 0, 0, 6, 10, 0, 0, 0, 0, 0, 0, 0, 10, 0, 0, 0, 0, 0, 0, 1, 5, 8, 0, 0, 0, 8, 0, 0, 4, 0, 0, 0, 0, 0, 0, 0, 0, 0, 10, 0, 0, 0, 0, 2, 0, 0 |];
suc = [ { 4, 7, 15 },
       { 5, 6, 26 },
       { 12, 14, 35 },
       { 53, 66, 70 },
       { 10, 16, 40 },
       { 8, 19, 24 },
       { 18, 31, 78 },
       { 9, 21, 23 },
       { 39, 48, 56 },
       { 11, 13, 75 },
       { 29, 38, 51 },
       { 20, 25, 32 },
       { 17, 41, 42 },
       { 28, 55 },
       { 16, 22, 28 },
       { 45, 59 },
       { 21, 22, 34 },
       { 40, 45 },
       { 46, 49 },
       { 26, 74, 87 },
       { 27, 49, 84 },
       { 51, 65, 68 },
       { 52, 54, 66 },
       { 37 },
       { 30, 40 },
       { 42, 64 },
       { 39, 47, 56 },
       { 38, 43, 50 },
       { 33, 36, 83 },
       { 34, 63, 71 },
       { 35, 41, 51 },
       { 55, 62, 64 },
       { 82 },
       { 54, 55, 62 },
       { 38, 43, 58 },
       { 84 },
       { 44, 56, 68 },
       { 48 },
       { 62, 70 },
       { 44, 53, 54 },
       { 44, 50, 81 },
       { 63 },
       { 45, 57, 61 },
       { 57, 84 },
       { 53, 67, 80 },
       { 61, 74 },
       { 48, 52 },
       { 60, 72 },
       { 50, 52 },
       { 57, 58 },
       { 58, 69 },
       { 59, 64, 71 },
       { 73 },
       { 59, 72 },
       { 60, 72, 77 },
       { 60, 77 },
       { 79, 88 },
       { 63 },
       { 67 },
       { 61, 65 },
       { 70, 81 },
       { 65, 68, 80 },
       { 76, 89 },
       { 69, 76, 77 },
       { 67 },
       { 71, 75 },
       { 69, 74 },
       { 86 },
       { 82, 85 },
       { 76 },
       { 78, 79 },
       { 90 },
       { 75 },
       { 81 },
       { 79, 88 },
       { 83 },
       { 78 },
       { 80, 83 },
       { 85, 87 },
       { 82, 90 },
       { 86 },
       { 89 },
       { 85, 86 },
       { 87 },
       { 90 },
       { 88 },
       { 89 },
       {  },
       {  },
       {  } ];
